p cnf 7 34
4 -2 5 0
-7 -3 -5 0
4 5 3 0
-5 4 -2 -7 1 0
-3 -7 1 0
-4 1 2 0
-5 6 -4 3 0
-1 -4 -6 0
-4 -7 -3 2 1 5 6 0
-6 -4 3 2 -7 5 -1 0
2 -5 0
-7 -1 -4 0
7 -1 -4 -2 3 6 0
-7 -4 6 0
-2 6 5 1 3 7 4 0
-4 -2 0
-6 -3 -2 0
6 -1 -5 3 0
6 -4 -5 0
-5 -7 2 0
1 -2 -7 6 -3 0
-5 -7 -6 -2 0
1 -2 -7 0
6 -1 7 2 0
-5 1 -2 0
2 -7 -3 -1 0
-6 -1 7 0
-2 -6 4 0
-6 -4 -5 -1 0
1 -3 4 6 0
-6 -2 -3 -5 -1 0
5 -1 6 3 -4 0
-5 -6 1 -7 -4 0
7 -3 0
